Annee_2/Semestre_7/Recherche_Operationnelle/TP1/PbEcommerce1.dat
# Données pour le problème : Affectation de commandes de clients au magasin cas 1

data;

set COMMANDE :=
D1
D2;

set FLUIDE :=
F1
F2;

set MAGASIN :=
M1
M2
M3;

param fluidecommande : F1 F2 :=
D1 2 0
D2 1 3;

param fluidemagasin : F1 F2 :=
M1 2.5 1
M2 1 2
M3 2 1;

param coutmagasin : F1 F2 :=
M1 1 1
M2 2 3
M3 3 2;



